p cnf 21 23
-16 -18 -6 2 -11 -8 7 12 -17 -13 0
-16 -4 18 7 0
-9 5 -14 0
5 4 0
16 -19 -6 0
-14 13 0
11 -20 9 0
12 -17 10 -8 -20 -3 -13 -2 16 0
-17 7 0
15 19 12 0
-9 8 5 11 -6 -19 -4 3 14 13 2 -20 -15 -7 0
-4 -10 16 14 0
-18 10 -19 -14 -9 -4 -16 12 -11 -20 0
19 -6 -3 -13 18 14 0
17 -12 9 -13 0
-14 16 2 3 0
2 6 -17 0
-6 9 0
3 -5 -8 -10 17 15 4 6 -11 0
-5 18 -15 0
5 16 0
14 -7 1 17 0
-9 -13 7 10 0
